c Sudoku solution
p cnf 729 0
113 0
131 0
167 0
194 0
266 0
318 0
324 0
336 0
363 0
457 0
475 0
516 0
534 0
541 0
578 0
617 0
623 0
664 0
484 0
728 0
749 0
777 0
781 0
811 0
421 0
961 0
833 0
858 0
468 0
638 0
525 0
569 0
932 0
735 0
714 0
919 0
762 0
865 0
215 0
412 0
439 0
237 0
793 0
756 0
273 0
583 0
496 0
597 0
443 0
552 0
655 0
646 0
953 0
254 0
351 0
159 0
122 0
229 0
176 0
291 0
671 0
974 0
844 0
947 0
827 0
926 0
886 0
387 0
689 0
692 0
282 0
379 0
188 0
395 0
145 0
342 0
248 0
872 0
899 0
985 0
998 0
